bond_style hybrid harmonic
angle_style hybrid harmonic
dihedral_style hybrid multi/harmonic charmm
special_bonds lj 0.0 0.0 0.5 coul 0.0 0.0 0.83333333
pair_style lj/cut/coul/long 9.0 9.0
pair_modify tail yes
kspace_style pppm 1e-8
pair_modify mix arithmetic
mass 1  12.0100000
mass 2   1.0080000
mass 3  12.0100000
mass 4  32.0600000
mass 5  32.0600000
mass 6  12.0100000
mass 7  16.0000000
mass 8  16.0000000
mass 9   1.0080000
mass 10  14.0100000
mass 11   1.0080000
mass 12   1.0080000
mass 13  32.0600000
mass 14  14.0100000
mass 15  32.0600000
mass 16  19.0000000
mass 17  12.0100000
mass 18  14.0100000
bond_coeff 1 harmonic    4.61100000e+02    1.39840000e+00
bond_coeff 2 harmonic    3.45800000e+02    1.08600000e+00
bond_coeff 3 harmonic    4.61100000e+02    1.39840000e+00
bond_coeff 4 harmonic    4.61100000e+02    1.39840000e+00
bond_coeff 5 harmonic    3.45800000e+02    1.08600000e+00
bond_coeff 6 harmonic    4.61100000e+02    1.39840000e+00
bond_coeff 7 harmonic    3.45800000e+02    1.08600000e+00
bond_coeff 8 harmonic    4.61100000e+02    1.39840000e+00
bond_coeff 9 harmonic    3.45800000e+02    1.08600000e+00
bond_coeff 10 harmonic    3.45800000e+02    1.08600000e+00
bond_coeff 11 harmonic    4.61100000e+02    1.39840000e+00
bond_coeff 12 harmonic    3.45900000e+02    1.49060000e+00
bond_coeff 13 harmonic    3.31300000e+02    1.67230000e+00
bond_coeff 14 harmonic    2.37900000e+02    1.80000000e+00
bond_coeff 15 harmonic    2.15900000e+02    1.83920000e+00
bond_coeff 16 harmonic    3.00900000e+02    1.53750000e+00
bond_coeff 17 harmonic    3.13000000e+02    1.52410000e+00
bond_coeff 18 harmonic    3.00900000e+02    1.53750000e+00
bond_coeff 19 harmonic    3.00900000e+02    1.53750000e+00
bond_coeff 20 harmonic    6.37700000e+02    1.21830000e+00
bond_coeff 21 harmonic    3.90800000e+02    1.35840000e+00
bond_coeff 22 harmonic    3.08600000e+02    1.43160000e+00
bond_coeff 23 harmonic    3.00900000e+02    1.53750000e+00
bond_coeff 24 harmonic    3.30600000e+02    1.09690000e+00
bond_coeff 25 harmonic    3.30600000e+02    1.09690000e+00
bond_coeff 26 harmonic    3.38700000e+02    1.09100000e+00
bond_coeff 27 harmonic    2.83300000e+02    1.51100000e+00
bond_coeff 28 harmonic    3.38700000e+02    1.09100000e+00
bond_coeff 29 harmonic    2.83300000e+02    1.51100000e+00
bond_coeff 30 harmonic    2.83300000e+02    1.51100000e+00
bond_coeff 31 harmonic    2.83300000e+02    1.51100000e+00
bond_coeff 32 harmonic    3.38700000e+02    1.09100000e+00
bond_coeff 33 harmonic    3.38700000e+02    1.09100000e+00
bond_coeff 34 harmonic    3.38700000e+02    1.09100000e+00
bond_coeff 35 harmonic    3.38700000e+02    1.09100000e+00
bond_coeff 36 harmonic    3.38700000e+02    1.09100000e+00
bond_coeff 37 harmonic    3.38700000e+02    1.09100000e+00
bond_coeff 38 harmonic    3.38700000e+02    1.09100000e+00
bond_coeff 39 harmonic    3.38700000e+02    1.09100000e+00
bond_coeff 40 harmonic    3.38700000e+02    1.09100000e+00
bond_coeff 41 harmonic    3.30600000e+02    1.09690000e+00
bond_coeff 42 harmonic    3.30600000e+02    1.09690000e+00
bond_coeff 43 harmonic    3.30600000e+02    1.09690000e+00
bond_coeff 44 harmonic    3.30600000e+02    1.09690000e+00
bond_coeff 45 harmonic    3.30600000e+02    1.09690000e+00
bond_coeff 46 harmonic    3.00900000e+02    1.53750000e+00
bond_coeff 47 harmonic    3.13000000e+02    1.52410000e+00
bond_coeff 48 harmonic    3.00900000e+02    1.53750000e+00
bond_coeff 49 harmonic    3.00900000e+02    1.53750000e+00
bond_coeff 50 harmonic    3.90800000e+02    1.35840000e+00
bond_coeff 51 harmonic    6.37700000e+02    1.21830000e+00
bond_coeff 52 harmonic    3.08600000e+02    1.43160000e+00
bond_coeff 53 harmonic    3.00900000e+02    1.53750000e+00
bond_coeff 54 harmonic    3.30600000e+02    1.09690000e+00
bond_coeff 55 harmonic    3.30600000e+02    1.09690000e+00
bond_coeff 56 harmonic    3.30600000e+02    1.09690000e+00
bond_coeff 57 harmonic    3.00900000e+02    1.53750000e+00
bond_coeff 58 harmonic    3.30600000e+02    1.09690000e+00
bond_coeff 59 harmonic    2.33500000e+02    1.80750000e+00
bond_coeff 60 harmonic    3.30600000e+02    1.09690000e+00
bond_coeff 61 harmonic    3.30600000e+02    1.09690000e+00
bond_coeff 62 harmonic    5.12700000e+02    1.45330000e+00
bond_coeff 63 harmonic    3.17100000e+02    1.67200000e+00
bond_coeff 64 harmonic    5.12700000e+02    1.45330000e+00
bond_coeff 65 harmonic    3.17100000e+02    1.67230000e+00
bond_coeff 66 harmonic    4.93000000e+02    1.46600000e+00
bond_coeff 67 harmonic    2.32800000e+02    1.80870000e+00
bond_coeff 68 harmonic    4.93000000e+02    1.46600000e+00
bond_coeff 69 harmonic    3.56900000e+02    1.34970000e+00
bond_coeff 70 harmonic    3.56900000e+02    1.34970000e+00
bond_coeff 71 harmonic    3.56900000e+02    1.34970000e+00
bond_coeff 72 harmonic    3.30600000e+02    1.09690000e+00
bond_coeff 73 harmonic    3.30600000e+02    1.09690000e+00
bond_coeff 74 harmonic    3.30600000e+02    1.09690000e+00
bond_coeff 75 harmonic    3.30600000e+02    1.09690000e+00
bond_coeff 76 harmonic    3.30600000e+02    1.09690000e+00
bond_coeff 77 harmonic    3.00900000e+02    1.53750000e+00
bond_coeff 78 harmonic    3.13000000e+02    1.52410000e+00
bond_coeff 79 harmonic    3.00900000e+02    1.53750000e+00
bond_coeff 80 harmonic    3.00900000e+02    1.53750000e+00
bond_coeff 81 harmonic    6.37700000e+02    1.21830000e+00
bond_coeff 82 harmonic    3.90800000e+02    1.35840000e+00
bond_coeff 83 harmonic    3.08600000e+02    1.43160000e+00
bond_coeff 84 harmonic    3.00900000e+02    1.53750000e+00
bond_coeff 85 harmonic    3.30600000e+02    1.09690000e+00
bond_coeff 86 harmonic    3.30600000e+02    1.09690000e+00
bond_coeff 87 harmonic    3.38700000e+02    1.09100000e+00
bond_coeff 88 harmonic    2.83300000e+02    1.51100000e+00
bond_coeff 89 harmonic    3.38700000e+02    1.09100000e+00
bond_coeff 90 harmonic    2.83300000e+02    1.51100000e+00
bond_coeff 91 harmonic    2.83300000e+02    1.51100000e+00
bond_coeff 92 harmonic    2.83300000e+02    1.51100000e+00
bond_coeff 93 harmonic    3.38700000e+02    1.09100000e+00
bond_coeff 94 harmonic    3.38700000e+02    1.09100000e+00
bond_coeff 95 harmonic    3.38700000e+02    1.09100000e+00
bond_coeff 96 harmonic    3.38700000e+02    1.09100000e+00
bond_coeff 97 harmonic    3.38700000e+02    1.09100000e+00
bond_coeff 98 harmonic    3.38700000e+02    1.09100000e+00
bond_coeff 99 harmonic    3.38700000e+02    1.09100000e+00
bond_coeff 100 harmonic    3.38700000e+02    1.09100000e+00
bond_coeff 101 harmonic    3.38700000e+02    1.09100000e+00
bond_coeff 102 harmonic    3.30600000e+02    1.09690000e+00
bond_coeff 103 harmonic    3.30600000e+02    1.09690000e+00
bond_coeff 104 harmonic    3.30600000e+02    1.09690000e+00
bond_coeff 105 harmonic    3.30600000e+02    1.09690000e+00
bond_coeff 106 harmonic    3.30600000e+02    1.09690000e+00
bond_coeff 107 harmonic    3.00900000e+02    1.53750000e+00
bond_coeff 108 harmonic    3.13000000e+02    1.52410000e+00
bond_coeff 109 harmonic    3.00900000e+02    1.53750000e+00
bond_coeff 110 harmonic    3.00900000e+02    1.53750000e+00
bond_coeff 111 harmonic    6.37700000e+02    1.21830000e+00
bond_coeff 112 harmonic    3.90800000e+02    1.35840000e+00
bond_coeff 113 harmonic    3.08600000e+02    1.43160000e+00
bond_coeff 114 harmonic    3.00900000e+02    1.53750000e+00
bond_coeff 115 harmonic    3.30600000e+02    1.09690000e+00
bond_coeff 116 harmonic    3.30600000e+02    1.09690000e+00
bond_coeff 117 harmonic    3.38700000e+02    1.09100000e+00
bond_coeff 118 harmonic    2.83300000e+02    1.51100000e+00
bond_coeff 119 harmonic    3.38700000e+02    1.09100000e+00
bond_coeff 120 harmonic    2.83300000e+02    1.51100000e+00
bond_coeff 121 harmonic    2.83300000e+02    1.51100000e+00
bond_coeff 122 harmonic    2.83300000e+02    1.51100000e+00
bond_coeff 123 harmonic    3.38700000e+02    1.09100000e+00
bond_coeff 124 harmonic    3.38700000e+02    1.09100000e+00
bond_coeff 125 harmonic    3.38700000e+02    1.09100000e+00
bond_coeff 126 harmonic    3.38700000e+02    1.09100000e+00
bond_coeff 127 harmonic    3.38700000e+02    1.09100000e+00
bond_coeff 128 harmonic    3.38700000e+02    1.09100000e+00
bond_coeff 129 harmonic    3.38700000e+02    1.09100000e+00
bond_coeff 130 harmonic    3.38700000e+02    1.09100000e+00
bond_coeff 131 harmonic    3.38700000e+02    1.09100000e+00
bond_coeff 132 harmonic    3.30600000e+02    1.09690000e+00
bond_coeff 133 harmonic    3.30600000e+02    1.09690000e+00
bond_coeff 134 harmonic    3.30600000e+02    1.09690000e+00
bond_coeff 135 harmonic    3.30600000e+02    1.09690000e+00
bond_coeff 136 harmonic    3.30600000e+02    1.09690000e+00
bond_coeff 137 harmonic    3.00900000e+02    1.53750000e+00
bond_coeff 138 harmonic    3.13000000e+02    1.52410000e+00
bond_coeff 139 harmonic    3.00900000e+02    1.53750000e+00
bond_coeff 140 harmonic    3.00900000e+02    1.53750000e+00
bond_coeff 141 harmonic    3.90800000e+02    1.35840000e+00
bond_coeff 142 harmonic    6.37700000e+02    1.21830000e+00
bond_coeff 143 harmonic    3.08600000e+02    1.43160000e+00
bond_coeff 144 harmonic    3.00900000e+02    1.53750000e+00
bond_coeff 145 harmonic    3.30600000e+02    1.09690000e+00
bond_coeff 146 harmonic    3.30600000e+02    1.09690000e+00
bond_coeff 147 harmonic    3.30600000e+02    1.09690000e+00
bond_coeff 148 harmonic    3.00900000e+02    1.53750000e+00
bond_coeff 149 harmonic    3.30600000e+02    1.09690000e+00
bond_coeff 150 harmonic    2.33500000e+02    1.80750000e+00
bond_coeff 151 harmonic    3.30600000e+02    1.09690000e+00
bond_coeff 152 harmonic    3.30600000e+02    1.09690000e+00
bond_coeff 153 harmonic    5.12700000e+02    1.45330000e+00
bond_coeff 154 harmonic    3.17100000e+02    1.67200000e+00
bond_coeff 155 harmonic    5.12700000e+02    1.45330000e+00
bond_coeff 156 harmonic    3.17100000e+02    1.67230000e+00
bond_coeff 157 harmonic    4.93000000e+02    1.46600000e+00
bond_coeff 158 harmonic    2.32800000e+02    1.80870000e+00
bond_coeff 159 harmonic    4.93000000e+02    1.46600000e+00
bond_coeff 160 harmonic    3.56900000e+02    1.34970000e+00
bond_coeff 161 harmonic    3.56900000e+02    1.34970000e+00
bond_coeff 162 harmonic    3.56900000e+02    1.34970000e+00
bond_coeff 163 harmonic    3.30600000e+02    1.09690000e+00
bond_coeff 164 harmonic    3.30600000e+02    1.09690000e+00
bond_coeff 165 harmonic    3.30600000e+02    1.09690000e+00
bond_coeff 166 harmonic    3.30600000e+02    1.09690000e+00
bond_coeff 167 harmonic    3.30600000e+02    1.09690000e+00
bond_coeff 168 harmonic    3.00900000e+02    1.53750000e+00
bond_coeff 169 harmonic    3.13000000e+02    1.52410000e+00
bond_coeff 170 harmonic    3.00900000e+02    1.53750000e+00
bond_coeff 171 harmonic    3.00900000e+02    1.53750000e+00
bond_coeff 172 harmonic    6.37700000e+02    1.21830000e+00
bond_coeff 173 harmonic    3.90800000e+02    1.35840000e+00
bond_coeff 174 harmonic    3.08600000e+02    1.43160000e+00
bond_coeff 175 harmonic    3.00900000e+02    1.53750000e+00
bond_coeff 176 harmonic    3.30600000e+02    1.09690000e+00
bond_coeff 177 harmonic    3.30600000e+02    1.09690000e+00
bond_coeff 178 harmonic    3.38700000e+02    1.09100000e+00
bond_coeff 179 harmonic    2.83300000e+02    1.51100000e+00
bond_coeff 180 harmonic    3.38700000e+02    1.09100000e+00
bond_coeff 181 harmonic    2.83300000e+02    1.51100000e+00
bond_coeff 182 harmonic    2.83300000e+02    1.51100000e+00
bond_coeff 183 harmonic    2.83300000e+02    1.51100000e+00
bond_coeff 184 harmonic    3.38700000e+02    1.09100000e+00
bond_coeff 185 harmonic    3.38700000e+02    1.09100000e+00
bond_coeff 186 harmonic    3.38700000e+02    1.09100000e+00
bond_coeff 187 harmonic    3.38700000e+02    1.09100000e+00
bond_coeff 188 harmonic    3.38700000e+02    1.09100000e+00
bond_coeff 189 harmonic    3.38700000e+02    1.09100000e+00
bond_coeff 190 harmonic    3.38700000e+02    1.09100000e+00
bond_coeff 191 harmonic    3.38700000e+02    1.09100000e+00
bond_coeff 192 harmonic    3.38700000e+02    1.09100000e+00
bond_coeff 193 harmonic    3.30600000e+02    1.09690000e+00
bond_coeff 194 harmonic    3.30600000e+02    1.09690000e+00
bond_coeff 195 harmonic    3.30600000e+02    1.09690000e+00
bond_coeff 196 harmonic    3.30600000e+02    1.09690000e+00
bond_coeff 197 harmonic    3.30600000e+02    1.09690000e+00
bond_coeff 198 harmonic    3.00900000e+02    1.53750000e+00
bond_coeff 199 harmonic    3.13000000e+02    1.52410000e+00
bond_coeff 200 harmonic    3.00900000e+02    1.53750000e+00
bond_coeff 201 harmonic    3.00900000e+02    1.53750000e+00
bond_coeff 202 harmonic    6.37700000e+02    1.21830000e+00
bond_coeff 203 harmonic    3.90800000e+02    1.35840000e+00
bond_coeff 204 harmonic    3.08600000e+02    1.43160000e+00
bond_coeff 205 harmonic    3.00900000e+02    1.53750000e+00
bond_coeff 206 harmonic    3.30600000e+02    1.09690000e+00
bond_coeff 207 harmonic    3.30600000e+02    1.09690000e+00
bond_coeff 208 harmonic    3.38700000e+02    1.09100000e+00
bond_coeff 209 harmonic    2.83300000e+02    1.51100000e+00
bond_coeff 210 harmonic    3.38700000e+02    1.09100000e+00
bond_coeff 211 harmonic    2.83300000e+02    1.51100000e+00
bond_coeff 212 harmonic    2.83300000e+02    1.51100000e+00
bond_coeff 213 harmonic    2.83300000e+02    1.51100000e+00
bond_coeff 214 harmonic    3.38700000e+02    1.09100000e+00
bond_coeff 215 harmonic    3.38700000e+02    1.09100000e+00
bond_coeff 216 harmonic    3.38700000e+02    1.09100000e+00
bond_coeff 217 harmonic    3.38700000e+02    1.09100000e+00
bond_coeff 218 harmonic    3.38700000e+02    1.09100000e+00
bond_coeff 219 harmonic    3.38700000e+02    1.09100000e+00
bond_coeff 220 harmonic    3.38700000e+02    1.09100000e+00
bond_coeff 221 harmonic    3.38700000e+02    1.09100000e+00
bond_coeff 222 harmonic    3.38700000e+02    1.09100000e+00
bond_coeff 223 harmonic    3.30600000e+02    1.09690000e+00
bond_coeff 224 harmonic    3.30600000e+02    1.09690000e+00
bond_coeff 225 harmonic    3.30600000e+02    1.09690000e+00
bond_coeff 226 harmonic    3.30600000e+02    1.09690000e+00
bond_coeff 227 harmonic    3.30600000e+02    1.09690000e+00
bond_coeff 228 harmonic    3.00900000e+02    1.53750000e+00
bond_coeff 229 harmonic    3.13000000e+02    1.52410000e+00
bond_coeff 230 harmonic    3.00900000e+02    1.53750000e+00
bond_coeff 231 harmonic    3.00900000e+02    1.53750000e+00
bond_coeff 232 harmonic    3.90800000e+02    1.35840000e+00
bond_coeff 233 harmonic    6.37700000e+02    1.21830000e+00
bond_coeff 234 harmonic    3.08600000e+02    1.43160000e+00
bond_coeff 235 harmonic    3.00900000e+02    1.53750000e+00
bond_coeff 236 harmonic    3.30600000e+02    1.09690000e+00
bond_coeff 237 harmonic    3.30600000e+02    1.09690000e+00
bond_coeff 238 harmonic    3.30600000e+02    1.09690000e+00
bond_coeff 239 harmonic    3.00900000e+02    1.53750000e+00
bond_coeff 240 harmonic    3.30600000e+02    1.09690000e+00
bond_coeff 241 harmonic    2.33500000e+02    1.80750000e+00
bond_coeff 242 harmonic    3.30600000e+02    1.09690000e+00
bond_coeff 243 harmonic    3.30600000e+02    1.09690000e+00
bond_coeff 244 harmonic    5.12700000e+02    1.45330000e+00
bond_coeff 245 harmonic    3.17100000e+02    1.67200000e+00
bond_coeff 246 harmonic    5.12700000e+02    1.45330000e+00
bond_coeff 247 harmonic    3.17100000e+02    1.67230000e+00
bond_coeff 248 harmonic    4.93000000e+02    1.46600000e+00
bond_coeff 249 harmonic    2.32800000e+02    1.80870000e+00
bond_coeff 250 harmonic    4.93000000e+02    1.46600000e+00
bond_coeff 251 harmonic    3.56900000e+02    1.34970000e+00
bond_coeff 252 harmonic    3.56900000e+02    1.34970000e+00
bond_coeff 253 harmonic    3.56900000e+02    1.34970000e+00
bond_coeff 254 harmonic    3.30600000e+02    1.09690000e+00
bond_coeff 255 harmonic    3.30600000e+02    1.09690000e+00
bond_coeff 256 harmonic    3.30600000e+02    1.09690000e+00
bond_coeff 257 harmonic    3.30600000e+02    1.09690000e+00
bond_coeff 258 harmonic    3.30600000e+02    1.09690000e+00
bond_coeff 259 harmonic    3.00900000e+02    1.53750000e+00
bond_coeff 260 harmonic    3.13000000e+02    1.52410000e+00
bond_coeff 261 harmonic    3.00900000e+02    1.53750000e+00
bond_coeff 262 harmonic    3.00900000e+02    1.53750000e+00
bond_coeff 263 harmonic    6.37700000e+02    1.21830000e+00
bond_coeff 264 harmonic    3.90800000e+02    1.35840000e+00
bond_coeff 265 harmonic    3.08600000e+02    1.43160000e+00
bond_coeff 266 harmonic    3.00900000e+02    1.53750000e+00
bond_coeff 267 harmonic    3.30600000e+02    1.09690000e+00
bond_coeff 268 harmonic    3.30600000e+02    1.09690000e+00
bond_coeff 269 harmonic    3.38700000e+02    1.09100000e+00
bond_coeff 270 harmonic    2.83300000e+02    1.51100000e+00
bond_coeff 271 harmonic    3.38700000e+02    1.09100000e+00
bond_coeff 272 harmonic    2.83300000e+02    1.51100000e+00
bond_coeff 273 harmonic    2.83300000e+02    1.51100000e+00
bond_coeff 274 harmonic    2.83300000e+02    1.51100000e+00
bond_coeff 275 harmonic    3.38700000e+02    1.09100000e+00
bond_coeff 276 harmonic    3.38700000e+02    1.09100000e+00
bond_coeff 277 harmonic    3.38700000e+02    1.09100000e+00
bond_coeff 278 harmonic    3.38700000e+02    1.09100000e+00
bond_coeff 279 harmonic    3.38700000e+02    1.09100000e+00
bond_coeff 280 harmonic    3.38700000e+02    1.09100000e+00
bond_coeff 281 harmonic    3.38700000e+02    1.09100000e+00
bond_coeff 282 harmonic    3.38700000e+02    1.09100000e+00
bond_coeff 283 harmonic    3.38700000e+02    1.09100000e+00
bond_coeff 284 harmonic    3.30600000e+02    1.09690000e+00
bond_coeff 285 harmonic    3.30600000e+02    1.09690000e+00
bond_coeff 286 harmonic    3.30600000e+02    1.09690000e+00
bond_coeff 287 harmonic    3.30600000e+02    1.09690000e+00
bond_coeff 288 harmonic    3.30600000e+02    1.09690000e+00
bond_coeff 289 harmonic    3.00900000e+02    1.53750000e+00
bond_coeff 290 harmonic    3.13000000e+02    1.52410000e+00
bond_coeff 291 harmonic    3.00900000e+02    1.53750000e+00
bond_coeff 292 harmonic    3.00900000e+02    1.53750000e+00
bond_coeff 293 harmonic    6.37700000e+02    1.21830000e+00
bond_coeff 294 harmonic    3.90800000e+02    1.35840000e+00
bond_coeff 295 harmonic    3.08600000e+02    1.43160000e+00
bond_coeff 296 harmonic    3.00900000e+02    1.53750000e+00
bond_coeff 297 harmonic    3.30600000e+02    1.09690000e+00
bond_coeff 298 harmonic    3.30600000e+02    1.09690000e+00
bond_coeff 299 harmonic    3.38700000e+02    1.09100000e+00
bond_coeff 300 harmonic    2.83300000e+02    1.51100000e+00
bond_coeff 301 harmonic    3.38700000e+02    1.09100000e+00
bond_coeff 302 harmonic    2.83300000e+02    1.51100000e+00
bond_coeff 303 harmonic    2.83300000e+02    1.51100000e+00
bond_coeff 304 harmonic    2.83300000e+02    1.51100000e+00
bond_coeff 305 harmonic    3.38700000e+02    1.09100000e+00
bond_coeff 306 harmonic    3.38700000e+02    1.09100000e+00
bond_coeff 307 harmonic    3.38700000e+02    1.09100000e+00
bond_coeff 308 harmonic    3.38700000e+02    1.09100000e+00
bond_coeff 309 harmonic    3.38700000e+02    1.09100000e+00
bond_coeff 310 harmonic    3.38700000e+02    1.09100000e+00
bond_coeff 311 harmonic    3.38700000e+02    1.09100000e+00
bond_coeff 312 harmonic    3.38700000e+02    1.09100000e+00
bond_coeff 313 harmonic    3.38700000e+02    1.09100000e+00
bond_coeff 314 harmonic    3.30600000e+02    1.09690000e+00
bond_coeff 315 harmonic    3.30600000e+02    1.09690000e+00
bond_coeff 316 harmonic    3.30600000e+02    1.09690000e+00
bond_coeff 317 harmonic    3.30600000e+02    1.09690000e+00
bond_coeff 318 harmonic    3.30600000e+02    1.09690000e+00
bond_coeff 319 harmonic    3.00900000e+02    1.53750000e+00
bond_coeff 320 harmonic    3.13000000e+02    1.52410000e+00
bond_coeff 321 harmonic    3.00900000e+02    1.53750000e+00
bond_coeff 322 harmonic    3.00900000e+02    1.53750000e+00
bond_coeff 323 harmonic    3.90800000e+02    1.35840000e+00
bond_coeff 324 harmonic    6.37700000e+02    1.21830000e+00
bond_coeff 325 harmonic    3.08600000e+02    1.43160000e+00
bond_coeff 326 harmonic    3.00900000e+02    1.53750000e+00
bond_coeff 327 harmonic    3.30600000e+02    1.09690000e+00
bond_coeff 328 harmonic    3.30600000e+02    1.09690000e+00
bond_coeff 329 harmonic    3.30600000e+02    1.09690000e+00
bond_coeff 330 harmonic    3.00900000e+02    1.53750000e+00
bond_coeff 331 harmonic    3.30600000e+02    1.09690000e+00
bond_coeff 332 harmonic    2.33500000e+02    1.80750000e+00
bond_coeff 333 harmonic    3.30600000e+02    1.09690000e+00
bond_coeff 334 harmonic    3.30600000e+02    1.09690000e+00
bond_coeff 335 harmonic    5.12700000e+02    1.45330000e+00
bond_coeff 336 harmonic    3.17100000e+02    1.67200000e+00
bond_coeff 337 harmonic    5.12700000e+02    1.45330000e+00
bond_coeff 338 harmonic    3.17100000e+02    1.67230000e+00
bond_coeff 339 harmonic    4.93000000e+02    1.46600000e+00
bond_coeff 340 harmonic    2.32800000e+02    1.80870000e+00
bond_coeff 341 harmonic    4.93000000e+02    1.46600000e+00
bond_coeff 342 harmonic    3.56900000e+02    1.34970000e+00
bond_coeff 343 harmonic    3.56900000e+02    1.34970000e+00
bond_coeff 344 harmonic    3.56900000e+02    1.34970000e+00
bond_coeff 345 harmonic    3.30600000e+02    1.09690000e+00
bond_coeff 346 harmonic    3.30600000e+02    1.09690000e+00
bond_coeff 347 harmonic    3.30600000e+02    1.09690000e+00
bond_coeff 348 harmonic    3.30600000e+02    1.09690000e+00
bond_coeff 349 harmonic    3.30600000e+02    1.09690000e+00
bond_coeff 350 harmonic    3.00900000e+02    1.53750000e+00
bond_coeff 351 harmonic    3.13000000e+02    1.52410000e+00
bond_coeff 352 harmonic    3.00900000e+02    1.53750000e+00
bond_coeff 353 harmonic    3.00900000e+02    1.53750000e+00
bond_coeff 354 harmonic    6.37700000e+02    1.21830000e+00
bond_coeff 355 harmonic    3.90800000e+02    1.35840000e+00
bond_coeff 356 harmonic    3.08600000e+02    1.43160000e+00
bond_coeff 357 harmonic    3.00900000e+02    1.53750000e+00
bond_coeff 358 harmonic    3.30600000e+02    1.09690000e+00
bond_coeff 359 harmonic    3.30600000e+02    1.09690000e+00
bond_coeff 360 harmonic    3.38700000e+02    1.09100000e+00
bond_coeff 361 harmonic    2.83300000e+02    1.51100000e+00
bond_coeff 362 harmonic    3.38700000e+02    1.09100000e+00
bond_coeff 363 harmonic    2.83300000e+02    1.51100000e+00
bond_coeff 364 harmonic    2.83300000e+02    1.51100000e+00
bond_coeff 365 harmonic    2.83300000e+02    1.51100000e+00
bond_coeff 366 harmonic    3.38700000e+02    1.09100000e+00
bond_coeff 367 harmonic    3.38700000e+02    1.09100000e+00
bond_coeff 368 harmonic    3.38700000e+02    1.09100000e+00
bond_coeff 369 harmonic    3.38700000e+02    1.09100000e+00
bond_coeff 370 harmonic    3.38700000e+02    1.09100000e+00
bond_coeff 371 harmonic    3.38700000e+02    1.09100000e+00
bond_coeff 372 harmonic    3.38700000e+02    1.09100000e+00
bond_coeff 373 harmonic    3.38700000e+02    1.09100000e+00
bond_coeff 374 harmonic    3.38700000e+02    1.09100000e+00
bond_coeff 375 harmonic    3.30600000e+02    1.09690000e+00
bond_coeff 376 harmonic    3.30600000e+02    1.09690000e+00
bond_coeff 377 harmonic    3.30600000e+02    1.09690000e+00
bond_coeff 378 harmonic    3.30600000e+02    1.09690000e+00
bond_coeff 379 harmonic    3.30600000e+02    1.09690000e+00
bond_coeff 380 harmonic    3.00900000e+02    1.53750000e+00
bond_coeff 381 harmonic    3.71600000e+02    1.46710000e+00
bond_coeff 382 harmonic    3.00900000e+02    1.53750000e+00
bond_coeff 383 harmonic    3.00900000e+02    1.53750000e+00
bond_coeff 384 harmonic    9.54600000e+02    1.15350000e+00
bond_coeff 385 harmonic    3.00900000e+02    1.53750000e+00
bond_coeff 386 harmonic    3.30600000e+02    1.09690000e+00
bond_coeff 387 harmonic    3.30600000e+02    1.09690000e+00
bond_coeff 388 harmonic    3.00900000e+02    1.53750000e+00
bond_coeff 389 harmonic    3.30600000e+02    1.09690000e+00
bond_coeff 390 harmonic    3.30600000e+02    1.09690000e+00
bond_coeff 391 harmonic    3.08600000e+02    1.43160000e+00
bond_coeff 392 harmonic    3.30600000e+02    1.09690000e+00
bond_coeff 393 harmonic    3.30600000e+02    1.09690000e+00
bond_coeff 394 harmonic    3.08600000e+02    1.43160000e+00
bond_coeff 395 harmonic    3.30600000e+02    1.09690000e+00
bond_coeff 396 harmonic    3.30600000e+02    1.09690000e+00
bond_coeff 397 harmonic    3.30600000e+02    1.09690000e+00
bond_coeff 398 harmonic    3.30600000e+02    1.09690000e+00
bond_coeff 399 harmonic    3.30600000e+02    1.09690000e+00
bond_coeff 400 harmonic    3.30600000e+02    1.09690000e+00
angle_coeff 1 harmonic    6.66000000e+01    1.20020052e+02
angle_coeff 2 harmonic    4.82000000e+01    1.19880051e+02
angle_coeff 3 harmonic    6.66000000e+01    1.20020052e+02
angle_coeff 4 harmonic    6.43000000e+01    1.20330052e+02
angle_coeff 5 harmonic    4.82000000e+01    1.19880051e+02
angle_coeff 6 harmonic    6.66000000e+01    1.20020052e+02
angle_coeff 7 harmonic    6.66000000e+01    1.20020052e+02
angle_coeff 8 harmonic    4.82000000e+01    1.19880051e+02
angle_coeff 9 harmonic    4.82000000e+01    1.19880051e+02
angle_coeff 10 harmonic    6.66000000e+01    1.20020052e+02
angle_coeff 11 harmonic    4.82000000e+01    1.19880051e+02
angle_coeff 12 harmonic    4.82000000e+01    1.19880051e+02
angle_coeff 13 harmonic    4.82000000e+01    1.19880051e+02
angle_coeff 14 harmonic    6.66000000e+01    1.20020052e+02
angle_coeff 15 harmonic    4.82000000e+01    1.19880051e+02
angle_coeff 16 harmonic    6.43000000e+01    1.20330052e+02
angle_coeff 17 harmonic    4.82000000e+01    1.19880051e+02
angle_coeff 18 harmonic    4.82000000e+01    1.19880051e+02
angle_coeff 19 harmonic    6.26000000e+01    1.22680052e+02
angle_coeff 20 harmonic    6.15000000e+01    1.15050050e+02
angle_coeff 21 harmonic    6.09000000e+01    9.91600426e+01
angle_coeff 22 harmonic    6.18000000e+01    1.23190053e+02
angle_coeff 23 harmonic    6.13000000e+01    1.10270047e+02
angle_coeff 24 harmonic    6.33000000e+01    1.11040048e+02
angle_coeff 25 harmonic    6.29000000e+01    1.11510048e+02
angle_coeff 26 harmonic    6.29000000e+01    1.11510048e+02
angle_coeff 27 harmonic    6.74000000e+01    1.23200053e+02
angle_coeff 28 harmonic    6.89000000e+01    1.10720048e+02
angle_coeff 29 harmonic    4.63000000e+01    1.09800047e+02
angle_coeff 30 harmonic    4.63000000e+01    1.09800047e+02
angle_coeff 31 harmonic    4.63000000e+01    1.09800047e+02
angle_coeff 32 harmonic    4.63000000e+01    1.09800047e+02
angle_coeff 33 harmonic    4.63000000e+01    1.09800047e+02
angle_coeff 34 harmonic    6.29000000e+01    1.11510048e+02
angle_coeff 35 harmonic    6.33000000e+01    1.11040048e+02
angle_coeff 36 harmonic    6.33000000e+01    1.11040048e+02
angle_coeff 37 harmonic    6.33000000e+01    1.15980050e+02
angle_coeff 38 harmonic    7.53000000e+01    1.23250052e+02
angle_coeff 39 harmonic    6.80000000e+01    1.07970046e+02
angle_coeff 40 harmonic    5.08000000e+01    1.09780047e+02
angle_coeff 41 harmonic    5.08000000e+01    1.09780047e+02
angle_coeff 42 harmonic    4.62000000e+01    1.10560047e+02
angle_coeff 43 harmonic    6.42000000e+01    1.14210049e+02
angle_coeff 44 harmonic    4.62000000e+01    1.10560047e+02
angle_coeff 45 harmonic    4.64000000e+01    1.09560047e+02
angle_coeff 46 harmonic    4.64000000e+01    1.09560047e+02
angle_coeff 47 harmonic    6.26000000e+01    1.09660047e+02
angle_coeff 48 harmonic    6.26000000e+01    1.09660047e+02
angle_coeff 49 harmonic    6.26000000e+01    1.09660047e+02
angle_coeff 50 harmonic    4.86000000e+01    1.08010046e+02
angle_coeff 51 harmonic    3.92000000e+01    1.09750047e+02
angle_coeff 52 harmonic    4.86000000e+01    1.08010046e+02
angle_coeff 53 harmonic    4.86000000e+01    1.08010046e+02
angle_coeff 54 harmonic    4.86000000e+01    1.08010046e+02
angle_coeff 55 harmonic    4.86000000e+01    1.08010046e+02
angle_coeff 56 harmonic    4.86000000e+01    1.08010046e+02
angle_coeff 57 harmonic    4.86000000e+01    1.08010046e+02
angle_coeff 58 harmonic    4.86000000e+01    1.08010046e+02
angle_coeff 59 harmonic    4.86000000e+01    1.08010046e+02
angle_coeff 60 harmonic    4.86000000e+01    1.08010046e+02
angle_coeff 61 harmonic    4.86000000e+01    1.08010046e+02
angle_coeff 62 harmonic    6.26000000e+01    1.09660047e+02
angle_coeff 63 harmonic    6.26000000e+01    1.09660047e+02
angle_coeff 64 harmonic    3.92000000e+01    1.09750047e+02
angle_coeff 65 harmonic    3.92000000e+01    1.09750047e+02
angle_coeff 66 harmonic    3.92000000e+01    1.09750047e+02
angle_coeff 67 harmonic    6.26000000e+01    1.09660047e+02
angle_coeff 68 harmonic    3.92000000e+01    1.09750047e+02
angle_coeff 69 harmonic    3.92000000e+01    1.09750047e+02
angle_coeff 70 harmonic    3.92000000e+01    1.09750047e+02
angle_coeff 71 harmonic    3.92000000e+01    1.09750047e+02
angle_coeff 72 harmonic    3.92000000e+01    1.09750047e+02
angle_coeff 73 harmonic    3.92000000e+01    1.09750047e+02
angle_coeff 74 harmonic    3.92000000e+01    1.08460047e+02
angle_coeff 75 harmonic    6.29000000e+01    1.11510048e+02
angle_coeff 76 harmonic    3.94000000e+01    1.07580046e+02
angle_coeff 77 harmonic    3.94000000e+01    1.07580046e+02
angle_coeff 78 harmonic    3.94000000e+01    1.07580046e+02
angle_coeff 79 harmonic    6.33000000e+01    1.11040048e+02
angle_coeff 80 harmonic    6.29000000e+01    1.11510048e+02
angle_coeff 81 harmonic    6.29000000e+01    1.11510048e+02
angle_coeff 82 harmonic    3.94000000e+01    1.07580046e+02
angle_coeff 83 harmonic    4.63000000e+01    1.09800047e+02
angle_coeff 84 harmonic    4.63000000e+01    1.09800047e+02
angle_coeff 85 harmonic    6.89000000e+01    1.10720048e+02
angle_coeff 86 harmonic    6.74000000e+01    1.23200053e+02
angle_coeff 87 harmonic    4.63000000e+01    1.09800047e+02
angle_coeff 88 harmonic    4.63000000e+01    1.09800047e+02
angle_coeff 89 harmonic    4.63000000e+01    1.09800047e+02
angle_coeff 90 harmonic    4.63000000e+01    1.09800047e+02
angle_coeff 91 harmonic    4.63000000e+01    1.09800047e+02